$rem
   job_type = force
   basis = def2-tzvppd
   max_scf_cycles = 200
   gen_scfman = true
   xc_grid = 3
   scf_algorithm = diis
   resp_charges = true
   symmetry = false
   sym_ignore = true
   method = wb97x-v
   solvent_method = smd
   ideriv = 1
   thresh = 14
$end

$smx
   solvent other
$end

$molecule
